Minimize
	value: tt

Subject to
tt + 1000 s_1_1 > 0.0
tt - t_1_1 - 1001.232924 s_1_1  + 1.232924 s_1_7  > -997.943067
tt + 1000 s_2_1 > 0.0
tt - t_2_1 - 1001.006486 s_2_1  + 1.006486 s_2_7  > -992.105647
tt + 1000 s_1_2 > 0.0
tt - t_1_2 - 1001.232924 s_1_2  + 1.232924 s_1_8  > -997.418322
tt + 1000 s_2_2 > 0.0
tt - t_2_2 - 1001.006486 s_2_2  + 1.006486 s_2_8  > -991.381716
tt + 1000 s_1_3 > 0.0
tt - t_1_3 - 1001.232924 s_1_3  + 1.232924 s_1_8  > -997.104767
tt + 1000 s_2_3 > 0.0
tt - t_2_3 - 1001.006486 s_2_3  + 1.006486 s_2_8  > -987.212582
tt + 1000 s_1_4 > 0.0
tt - t_1_4 - 1002.465847 s_1_4  + 1.232924 s_1_8  + 1.232924 s_1_3  > -998.538878
tt + 1000 s_2_4 > 0.0
tt - t_2_4 - 1002.012972 s_2_4  + 1.006486 s_2_8  + 1.006486 s_2_3  > -992.750181
tt + 1000 s_1_5 > 0.0
tt - t_1_5 - 1002.465847 s_1_5  + 1.232924 s_1_7  + 1.232924 s_1_8  > -998.679967
tt + 1000 s_2_5 > 0.0
tt - t_2_5 - 1002.012972 s_2_5  + 1.006486 s_2_7  + 1.006486 s_2_8  > -993.771886
tt + 1000 s_1_6 > 0.0
tt - t_1_6 - 1006.164618 s_1_6  + 1.232924 s_1_4  + 1.232924 s_1_1  + 1.232924 s_1_3  + 1.232924 s_1_5  + 1.232924 s_1_2  > -999.718600
tt + 1000 s_2_6 > 0.0
tt - t_2_6 - 1005.032431 s_2_6  + 1.006486 s_2_4  + 1.006486 s_2_1  + 1.006486 s_2_3  + 1.006486 s_2_5  + 1.006486 s_2_2  > -995.684500
tt + 1000 s_1_7 > 0.0
tt - t_1_7 - 1000.000000 s_1_7  > -994.919422
tt + 1000 s_2_7 > 0.0
tt - t_2_7 - 1000.000000 s_2_7  > -981.304279
tt + 1000 s_1_8 > 0.0
tt - t_1_8 - 1000.000000 s_1_8  > -997.364489
tt + 1000 s_2_8 > 0.0
tt - t_2_8 - 1000.000000 s_2_8  > -993.675957
s_1_1 + s_2_1 = 1
s_1_2 + s_2_2 = 1
s_1_3 + s_2_3 = 1
s_1_4 + s_2_4 = 1
s_1_5 + s_2_5 = 1
s_1_6 + s_2_6 = 1
s_1_7 + s_2_7 = 1
s_1_8 + s_2_8 = 1
s_1_1 + s_1_2 + 1000 r_1_1_2 >= 2
- s_1_1 - s_1_2 - 1000 r_1_1_2 >= -1001
t_1_1 - t_1_2 - 1000.000000 u_1_1_2 - 1.232924 s_1_2  + 1.232924 s_1_8  + 2000.000000 r_1_1_2 > -997.418322
s_2_1 + s_2_2 + 1000 r_2_1_2 >= 2
- s_2_1 - s_2_2 - 1000 r_2_1_2 >= -1001
t_2_1 - t_2_2 - 1000.000000 u_2_1_2 - 1.006486 s_2_2  + 1.006486 s_2_8  + 2000.000000 r_2_1_2 > -991.381716
s_1_1 + s_1_3 + 1000 r_1_1_3 >= 2
- s_1_1 - s_1_3 - 1000 r_1_1_3 >= -1001
t_1_1 - t_1_3 - 1000.000000 u_1_1_3 - 1.232924 s_1_3  + 1.232924 s_1_8  + 2000.000000 r_1_1_3 > -997.104767
s_2_1 + s_2_3 + 1000 r_2_1_3 >= 2
- s_2_1 - s_2_3 - 1000 r_2_1_3 >= -1001
t_2_1 - t_2_3 - 1000.000000 u_2_1_3 - 1.006486 s_2_3  + 1.006486 s_2_8  + 2000.000000 r_2_1_3 > -987.212582
s_1_1 + s_1_4 + 1000 r_1_1_4 >= 2
- s_1_1 - s_1_4 - 1000 r_1_1_4 >= -1001
t_1_1 - t_1_4 - 1000.000000 u_1_1_4 - 2.465847 s_1_4  + 1.232924 s_1_8  + 1.232924 s_1_3  + 2000.000000 r_1_1_4 > -998.538878
s_2_1 + s_2_4 + 1000 r_2_1_4 >= 2
- s_2_1 - s_2_4 - 1000 r_2_1_4 >= -1001
t_2_1 - t_2_4 - 1000.000000 u_2_1_4 - 2.012972 s_2_4  + 1.006486 s_2_8  + 1.006486 s_2_3  + 2000.000000 r_2_1_4 > -992.750181
s_1_1 + s_1_5 + 1000 r_1_1_5 >= 2
- s_1_1 - s_1_5 - 1000 r_1_1_5 >= -1001
t_1_1 - t_1_5 - 1000.000000 u_1_1_5 - 2.465847 s_1_5  + 1.232924 s_1_7  + 1.232924 s_1_8  + 2000.000000 r_1_1_5 > -998.679967
s_2_1 + s_2_5 + 1000 r_2_1_5 >= 2
- s_2_1 - s_2_5 - 1000 r_2_1_5 >= -1001
t_2_1 - t_2_5 - 1000.000000 u_2_1_5 - 2.012972 s_2_5  + 1.006486 s_2_7  + 1.006486 s_2_8  + 2000.000000 r_2_1_5 > -993.771886
t_1_6 - t_1_1 - 1001.232924 s_1_1  + 1.232924 s_1_7  > -997.943067
t_1_6 - t_2_1 - 1001.006486 s_2_1  + 1.006486 s_2_7  > -992.105647
t_2_6 - t_1_1 - 1001.232924 s_1_1  + 1.232924 s_1_7  > -997.943067
t_2_6 - t_2_1 - 1001.006486 s_2_1  + 1.006486 s_2_7  > -992.105647
t_1_1 - t_1_7 - 1000.000000 s_1_7  > -994.919422
t_1_1 - t_2_7 - 1000.000000 s_2_7  > -981.304279
t_2_1 - t_1_7 - 1000.000000 s_1_7  > -994.919422
t_2_1 - t_2_7 - 1000.000000 s_2_7  > -981.304279
s_1_1 + s_1_8 + 1000 r_1_1_8 >= 2
- s_1_1 - s_1_8 - 1000 r_1_1_8 >= -1001
t_1_1 - t_1_8 - 1000.000000 u_1_1_8 - 0.000000 s_1_8  + 2000.000000 r_1_1_8 > -997.364489
s_2_1 + s_2_8 + 1000 r_2_1_8 >= 2
- s_2_1 - s_2_8 - 1000 r_2_1_8 >= -1001
t_2_1 - t_2_8 - 1000.000000 u_2_1_8 - 0.000000 s_2_8  + 2000.000000 r_2_1_8 > -993.675957
s_1_2 + s_1_1 + 1000 r_1_1_2 >= 2
- s_1_2 - s_1_1 - 1000 r_1_1_2 >= -1001
t_1_2 - t_1_1 + 1000.000000 u_1_1_2 - 1.232924 s_1_1  + 1.232924 s_1_7  + 2000.000000 r_1_1_2 > 2.056933
s_2_2 + s_2_1 + 1000 r_2_1_2 >= 2
- s_2_2 - s_2_1 - 1000 r_2_1_2 >= -1001
t_2_2 - t_2_1 + 1000.000000 u_2_1_2 - 1.006486 s_2_1  + 1.006486 s_2_7  + 2000.000000 r_2_1_2 > 7.894353
s_1_2 + s_1_3 + 1000 r_1_2_3 >= 2
- s_1_2 - s_1_3 - 1000 r_1_2_3 >= -1001
t_1_2 - t_1_3 - 1000.000000 u_1_2_3 - 1.232924 s_1_3  + 1.232924 s_1_8  + 2000.000000 r_1_2_3 > -997.104767
s_2_2 + s_2_3 + 1000 r_2_2_3 >= 2
- s_2_2 - s_2_3 - 1000 r_2_2_3 >= -1001
t_2_2 - t_2_3 - 1000.000000 u_2_2_3 - 1.006486 s_2_3  + 1.006486 s_2_8  + 2000.000000 r_2_2_3 > -987.212582
s_1_2 + s_1_4 + 1000 r_1_2_4 >= 2
- s_1_2 - s_1_4 - 1000 r_1_2_4 >= -1001
t_1_2 - t_1_4 - 1000.000000 u_1_2_4 - 2.465847 s_1_4  + 1.232924 s_1_8  + 1.232924 s_1_3  + 2000.000000 r_1_2_4 > -998.538878
s_2_2 + s_2_4 + 1000 r_2_2_4 >= 2
- s_2_2 - s_2_4 - 1000 r_2_2_4 >= -1001
t_2_2 - t_2_4 - 1000.000000 u_2_2_4 - 2.012972 s_2_4  + 1.006486 s_2_8  + 1.006486 s_2_3  + 2000.000000 r_2_2_4 > -992.750181
s_1_2 + s_1_5 + 1000 r_1_2_5 >= 2
- s_1_2 - s_1_5 - 1000 r_1_2_5 >= -1001
t_1_2 - t_1_5 - 1000.000000 u_1_2_5 - 2.465847 s_1_5  + 1.232924 s_1_7  + 1.232924 s_1_8  + 2000.000000 r_1_2_5 > -998.679967
s_2_2 + s_2_5 + 1000 r_2_2_5 >= 2
- s_2_2 - s_2_5 - 1000 r_2_2_5 >= -1001
t_2_2 - t_2_5 - 1000.000000 u_2_2_5 - 2.012972 s_2_5  + 1.006486 s_2_7  + 1.006486 s_2_8  + 2000.000000 r_2_2_5 > -993.771886
t_1_6 - t_1_2 - 1001.232924 s_1_2  + 1.232924 s_1_8  > -997.418322
t_1_6 - t_2_2 - 1001.006486 s_2_2  + 1.006486 s_2_8  > -991.381716
t_2_6 - t_1_2 - 1001.232924 s_1_2  + 1.232924 s_1_8  > -997.418322
t_2_6 - t_2_2 - 1001.006486 s_2_2  + 1.006486 s_2_8  > -991.381716
s_1_2 + s_1_7 + 1000 r_1_2_7 >= 2
- s_1_2 - s_1_7 - 1000 r_1_2_7 >= -1001
t_1_2 - t_1_7 - 1000.000000 u_1_2_7 - 0.000000 s_1_7  + 2000.000000 r_1_2_7 > -994.919422
s_2_2 + s_2_7 + 1000 r_2_2_7 >= 2
- s_2_2 - s_2_7 - 1000 r_2_2_7 >= -1001
t_2_2 - t_2_7 - 1000.000000 u_2_2_7 - 0.000000 s_2_7  + 2000.000000 r_2_2_7 > -981.304279
t_1_2 - t_1_8 - 1000.000000 s_1_8  > -997.364489
t_1_2 - t_2_8 - 1000.000000 s_2_8  > -993.675957
t_2_2 - t_1_8 - 1000.000000 s_1_8  > -997.364489
t_2_2 - t_2_8 - 1000.000000 s_2_8  > -993.675957
s_1_3 + s_1_1 + 1000 r_1_1_3 >= 2
- s_1_3 - s_1_1 - 1000 r_1_1_3 >= -1001
t_1_3 - t_1_1 + 1000.000000 u_1_1_3 - 1.232924 s_1_1  + 1.232924 s_1_7  + 2000.000000 r_1_1_3 > 2.056933
s_2_3 + s_2_1 + 1000 r_2_1_3 >= 2
- s_2_3 - s_2_1 - 1000 r_2_1_3 >= -1001
t_2_3 - t_2_1 + 1000.000000 u_2_1_3 - 1.006486 s_2_1  + 1.006486 s_2_7  + 2000.000000 r_2_1_3 > 7.894353
s_1_3 + s_1_2 + 1000 r_1_2_3 >= 2
- s_1_3 - s_1_2 - 1000 r_1_2_3 >= -1001
t_1_3 - t_1_2 + 1000.000000 u_1_2_3 - 1.232924 s_1_2  + 1.232924 s_1_8  + 2000.000000 r_1_2_3 > 2.581678
s_2_3 + s_2_2 + 1000 r_2_2_3 >= 2
- s_2_3 - s_2_2 - 1000 r_2_2_3 >= -1001
t_2_3 - t_2_2 + 1000.000000 u_2_2_3 - 1.006486 s_2_2  + 1.006486 s_2_8  + 2000.000000 r_2_2_3 > 8.618284
t_1_4 - t_1_3 - 1001.232924 s_1_3  + 1.232924 s_1_8  > -997.104767
t_1_4 - t_2_3 - 1001.006486 s_2_3  + 1.006486 s_2_8  > -987.212582
t_2_4 - t_1_3 - 1001.232924 s_1_3  + 1.232924 s_1_8  > -997.104767
t_2_4 - t_2_3 - 1001.006486 s_2_3  + 1.006486 s_2_8  > -987.212582
s_1_3 + s_1_5 + 1000 r_1_3_5 >= 2
- s_1_3 - s_1_5 - 1000 r_1_3_5 >= -1001
t_1_3 - t_1_5 - 1000.000000 u_1_3_5 - 2.465847 s_1_5  + 1.232924 s_1_7  + 1.232924 s_1_8  + 2000.000000 r_1_3_5 > -998.679967
s_2_3 + s_2_5 + 1000 r_2_3_5 >= 2
- s_2_3 - s_2_5 - 1000 r_2_3_5 >= -1001
t_2_3 - t_2_5 - 1000.000000 u_2_3_5 - 2.012972 s_2_5  + 1.006486 s_2_7  + 1.006486 s_2_8  + 2000.000000 r_2_3_5 > -993.771886
t_1_6 - t_1_3 - 1001.232924 s_1_3  + 1.232924 s_1_8  > -997.104767
t_1_6 - t_2_3 - 1001.006486 s_2_3  + 1.006486 s_2_8  > -987.212582
t_2_6 - t_1_3 - 1001.232924 s_1_3  + 1.232924 s_1_8  > -997.104767
t_2_6 - t_2_3 - 1001.006486 s_2_3  + 1.006486 s_2_8  > -987.212582
s_1_3 + s_1_7 + 1000 r_1_3_7 >= 2
- s_1_3 - s_1_7 - 1000 r_1_3_7 >= -1001
t_1_3 - t_1_7 - 1000.000000 u_1_3_7 - 0.000000 s_1_7  + 2000.000000 r_1_3_7 > -994.919422
s_2_3 + s_2_7 + 1000 r_2_3_7 >= 2
- s_2_3 - s_2_7 - 1000 r_2_3_7 >= -1001
t_2_3 - t_2_7 - 1000.000000 u_2_3_7 - 0.000000 s_2_7  + 2000.000000 r_2_3_7 > -981.304279
t_1_3 - t_1_8 - 1000.000000 s_1_8  > -997.364489
t_1_3 - t_2_8 - 1000.000000 s_2_8  > -993.675957
t_2_3 - t_1_8 - 1000.000000 s_1_8  > -997.364489
t_2_3 - t_2_8 - 1000.000000 s_2_8  > -993.675957
s_1_4 + s_1_1 + 1000 r_1_1_4 >= 2
- s_1_4 - s_1_1 - 1000 r_1_1_4 >= -1001
t_1_4 - t_1_1 + 1000.000000 u_1_1_4 - 1.232924 s_1_1  + 1.232924 s_1_7  + 2000.000000 r_1_1_4 > 2.056933
s_2_4 + s_2_1 + 1000 r_2_1_4 >= 2
- s_2_4 - s_2_1 - 1000 r_2_1_4 >= -1001
t_2_4 - t_2_1 + 1000.000000 u_2_1_4 - 1.006486 s_2_1  + 1.006486 s_2_7  + 2000.000000 r_2_1_4 > 7.894353
s_1_4 + s_1_2 + 1000 r_1_2_4 >= 2
- s_1_4 - s_1_2 - 1000 r_1_2_4 >= -1001
t_1_4 - t_1_2 + 1000.000000 u_1_2_4 - 1.232924 s_1_2  + 1.232924 s_1_8  + 2000.000000 r_1_2_4 > 2.581678
s_2_4 + s_2_2 + 1000 r_2_2_4 >= 2
- s_2_4 - s_2_2 - 1000 r_2_2_4 >= -1001
t_2_4 - t_2_2 + 1000.000000 u_2_2_4 - 1.006486 s_2_2  + 1.006486 s_2_8  + 2000.000000 r_2_2_4 > 8.618284
s_1_4 + s_1_5 + 1000 r_1_4_5 >= 2
- s_1_4 - s_1_5 - 1000 r_1_4_5 >= -1001
t_1_4 - t_1_5 - 1000.000000 u_1_4_5 - 2.465847 s_1_5  + 1.232924 s_1_7  + 1.232924 s_1_8  + 2000.000000 r_1_4_5 > -998.679967
s_2_4 + s_2_5 + 1000 r_2_4_5 >= 2
- s_2_4 - s_2_5 - 1000 r_2_4_5 >= -1001
t_2_4 - t_2_5 - 1000.000000 u_2_4_5 - 2.012972 s_2_5  + 1.006486 s_2_7  + 1.006486 s_2_8  + 2000.000000 r_2_4_5 > -993.771886
t_1_6 - t_1_4 - 1002.465847 s_1_4  + 1.232924 s_1_8  + 1.232924 s_1_3  > -998.538878
t_1_6 - t_2_4 - 1002.012972 s_2_4  + 1.006486 s_2_8  + 1.006486 s_2_3  > -992.750181
t_2_6 - t_1_4 - 1002.465847 s_1_4  + 1.232924 s_1_8  + 1.232924 s_1_3  > -998.538878
t_2_6 - t_2_4 - 1002.012972 s_2_4  + 1.006486 s_2_8  + 1.006486 s_2_3  > -992.750181
s_1_4 + s_1_7 + 1000 r_1_4_7 >= 2
- s_1_4 - s_1_7 - 1000 r_1_4_7 >= -1001
t_1_4 - t_1_7 - 1000.000000 u_1_4_7 - 0.000000 s_1_7  + 2000.000000 r_1_4_7 > -994.919422
s_2_4 + s_2_7 + 1000 r_2_4_7 >= 2
- s_2_4 - s_2_7 - 1000 r_2_4_7 >= -1001
t_2_4 - t_2_7 - 1000.000000 u_2_4_7 - 0.000000 s_2_7  + 2000.000000 r_2_4_7 > -981.304279
t_1_4 - t_1_8 - 1000.000000 s_1_8  > -997.364489
t_1_4 - t_2_8 - 1000.000000 s_2_8  > -993.675957
t_2_4 - t_1_8 - 1000.000000 s_1_8  > -997.364489
t_2_4 - t_2_8 - 1000.000000 s_2_8  > -993.675957
s_1_5 + s_1_1 + 1000 r_1_1_5 >= 2
- s_1_5 - s_1_1 - 1000 r_1_1_5 >= -1001
t_1_5 - t_1_1 + 1000.000000 u_1_1_5 - 1.232924 s_1_1  + 1.232924 s_1_7  + 2000.000000 r_1_1_5 > 2.056933
s_2_5 + s_2_1 + 1000 r_2_1_5 >= 2
- s_2_5 - s_2_1 - 1000 r_2_1_5 >= -1001
t_2_5 - t_2_1 + 1000.000000 u_2_1_5 - 1.006486 s_2_1  + 1.006486 s_2_7  + 2000.000000 r_2_1_5 > 7.894353
s_1_5 + s_1_2 + 1000 r_1_2_5 >= 2
- s_1_5 - s_1_2 - 1000 r_1_2_5 >= -1001
t_1_5 - t_1_2 + 1000.000000 u_1_2_5 - 1.232924 s_1_2  + 1.232924 s_1_8  + 2000.000000 r_1_2_5 > 2.581678
s_2_5 + s_2_2 + 1000 r_2_2_5 >= 2
- s_2_5 - s_2_2 - 1000 r_2_2_5 >= -1001
t_2_5 - t_2_2 + 1000.000000 u_2_2_5 - 1.006486 s_2_2  + 1.006486 s_2_8  + 2000.000000 r_2_2_5 > 8.618284
s_1_5 + s_1_3 + 1000 r_1_3_5 >= 2
- s_1_5 - s_1_3 - 1000 r_1_3_5 >= -1001
t_1_5 - t_1_3 + 1000.000000 u_1_3_5 - 1.232924 s_1_3  + 1.232924 s_1_8  + 2000.000000 r_1_3_5 > 2.895233
s_2_5 + s_2_3 + 1000 r_2_3_5 >= 2
- s_2_5 - s_2_3 - 1000 r_2_3_5 >= -1001
t_2_5 - t_2_3 + 1000.000000 u_2_3_5 - 1.006486 s_2_3  + 1.006486 s_2_8  + 2000.000000 r_2_3_5 > 12.787418
s_1_5 + s_1_4 + 1000 r_1_4_5 >= 2
- s_1_5 - s_1_4 - 1000 r_1_4_5 >= -1001
t_1_5 - t_1_4 + 1000.000000 u_1_4_5 - 2.465847 s_1_4  + 1.232924 s_1_8  + 1.232924 s_1_3  + 2000.000000 r_1_4_5 > 1.461122
s_2_5 + s_2_4 + 1000 r_2_4_5 >= 2
- s_2_5 - s_2_4 - 1000 r_2_4_5 >= -1001
t_2_5 - t_2_4 + 1000.000000 u_2_4_5 - 2.012972 s_2_4  + 1.006486 s_2_8  + 1.006486 s_2_3  + 2000.000000 r_2_4_5 > 7.249819
t_1_6 - t_1_5 - 1002.465847 s_1_5  + 1.232924 s_1_7  + 1.232924 s_1_8  > -998.679967
t_1_6 - t_2_5 - 1002.012972 s_2_5  + 1.006486 s_2_7  + 1.006486 s_2_8  > -993.771886
t_2_6 - t_1_5 - 1002.465847 s_1_5  + 1.232924 s_1_7  + 1.232924 s_1_8  > -998.679967
t_2_6 - t_2_5 - 1002.012972 s_2_5  + 1.006486 s_2_7  + 1.006486 s_2_8  > -993.771886
t_1_5 - t_1_7 - 1000.000000 s_1_7  > -994.919422
t_1_5 - t_2_7 - 1000.000000 s_2_7  > -981.304279
t_2_5 - t_1_7 - 1000.000000 s_1_7  > -994.919422
t_2_5 - t_2_7 - 1000.000000 s_2_7  > -981.304279
t_1_5 - t_1_8 - 1000.000000 s_1_8  > -997.364489
t_1_5 - t_2_8 - 1000.000000 s_2_8  > -993.675957
t_2_5 - t_1_8 - 1000.000000 s_1_8  > -997.364489
t_2_5 - t_2_8 - 1000.000000 s_2_8  > -993.675957
s_1_7 + s_1_2 + 1000 r_1_2_7 >= 2
- s_1_7 - s_1_2 - 1000 r_1_2_7 >= -1001
t_1_7 - t_1_2 + 1000.000000 u_1_2_7 - 1.232924 s_1_2  + 1.232924 s_1_8  + 2000.000000 r_1_2_7 > 2.581678
s_2_7 + s_2_2 + 1000 r_2_2_7 >= 2
- s_2_7 - s_2_2 - 1000 r_2_2_7 >= -1001
t_2_7 - t_2_2 + 1000.000000 u_2_2_7 - 1.006486 s_2_2  + 1.006486 s_2_8  + 2000.000000 r_2_2_7 > 8.618284
s_1_7 + s_1_3 + 1000 r_1_3_7 >= 2
- s_1_7 - s_1_3 - 1000 r_1_3_7 >= -1001
t_1_7 - t_1_3 + 1000.000000 u_1_3_7 - 1.232924 s_1_3  + 1.232924 s_1_8  + 2000.000000 r_1_3_7 > 2.895233
s_2_7 + s_2_3 + 1000 r_2_3_7 >= 2
- s_2_7 - s_2_3 - 1000 r_2_3_7 >= -1001
t_2_7 - t_2_3 + 1000.000000 u_2_3_7 - 1.006486 s_2_3  + 1.006486 s_2_8  + 2000.000000 r_2_3_7 > 12.787418
s_1_7 + s_1_4 + 1000 r_1_4_7 >= 2
- s_1_7 - s_1_4 - 1000 r_1_4_7 >= -1001
t_1_7 - t_1_4 + 1000.000000 u_1_4_7 - 2.465847 s_1_4  + 1.232924 s_1_8  + 1.232924 s_1_3  + 2000.000000 r_1_4_7 > 1.461122
s_2_7 + s_2_4 + 1000 r_2_4_7 >= 2
- s_2_7 - s_2_4 - 1000 r_2_4_7 >= -1001
t_2_7 - t_2_4 + 1000.000000 u_2_4_7 - 2.012972 s_2_4  + 1.006486 s_2_8  + 1.006486 s_2_3  + 2000.000000 r_2_4_7 > 7.249819
s_1_7 + s_1_8 + 1000 r_1_7_8 >= 2
- s_1_7 - s_1_8 - 1000 r_1_7_8 >= -1001
t_1_7 - t_1_8 - 1000.000000 u_1_7_8 - 0.000000 s_1_8  + 2000.000000 r_1_7_8 > -997.364489
s_2_7 + s_2_8 + 1000 r_2_7_8 >= 2
- s_2_7 - s_2_8 - 1000 r_2_7_8 >= -1001
t_2_7 - t_2_8 - 1000.000000 u_2_7_8 - 0.000000 s_2_8  + 2000.000000 r_2_7_8 > -993.675957
s_1_8 + s_1_1 + 1000 r_1_1_8 >= 2
- s_1_8 - s_1_1 - 1000 r_1_1_8 >= -1001
t_1_8 - t_1_1 + 1000.000000 u_1_1_8 - 1.232924 s_1_1  + 1.232924 s_1_7  + 2000.000000 r_1_1_8 > 2.056933
s_2_8 + s_2_1 + 1000 r_2_1_8 >= 2
- s_2_8 - s_2_1 - 1000 r_2_1_8 >= -1001
t_2_8 - t_2_1 + 1000.000000 u_2_1_8 - 1.006486 s_2_1  + 1.006486 s_2_7  + 2000.000000 r_2_1_8 > 7.894353
s_1_8 + s_1_7 + 1000 r_1_7_8 >= 2
- s_1_8 - s_1_7 - 1000 r_1_7_8 >= -1001
t_1_8 - t_1_7 + 1000.000000 u_1_7_8 - 0.000000 s_1_7  + 2000.000000 r_1_7_8 > 5.080578
s_2_8 + s_2_7 + 1000 r_2_7_8 >= 2
- s_2_8 - s_2_7 - 1000 r_2_7_8 >= -1001
t_2_8 - t_2_7 + 1000.000000 u_2_7_8 - 0.000000 s_2_7  + 2000.000000 r_2_7_8 > 18.695721
Binary
s_1_1
s_2_1
s_1_2
s_2_2
s_1_3
s_2_3
s_1_4
s_2_4
s_1_5
s_2_5
s_1_6
s_2_6
s_1_7
s_2_7
s_1_8
s_2_8
u_1_1_2
r_1_1_2
u_2_1_2
r_2_1_2
u_1_1_3
r_1_1_3
u_2_1_3
r_2_1_3
u_1_1_4
r_1_1_4
u_2_1_4
r_2_1_4
u_1_1_5
r_1_1_5
u_2_1_5
r_2_1_5
u_1_1_8
r_1_1_8
u_2_1_8
r_2_1_8
u_1_2_3
r_1_2_3
u_2_2_3
r_2_2_3
u_1_2_4
r_1_2_4
u_2_2_4
r_2_2_4
u_1_2_5
r_1_2_5
u_2_2_5
r_2_2_5
u_1_2_7
r_1_2_7
u_2_2_7
r_2_2_7
u_1_3_5
r_1_3_5
u_2_3_5
r_2_3_5
u_1_3_7
r_1_3_7
u_2_3_7
r_2_3_7
u_1_4_5
r_1_4_5
u_2_4_5
r_2_4_5
u_1_4_7
r_1_4_7
u_2_4_7
r_2_4_7
u_1_7_8
r_1_7_8
u_2_7_8
r_2_7_8

End
